p cnf 50 128
4 -18 0
-4 18 0
4 6 0
-5 6 0
-4 5 -6 0
6 -8 0
7 -8 0
-6 -7 8 0
9 11 0
-10 11 0
-9 10 -11 0
-1 11 -12 0
1 -11 -12 0
-1 -11 12 0
1 11 12 0
-12 0
8 -16 0
13 -16 0
-14 -16 0
15 -16 0
-8 -13 14 -15 16 0
13 17 0
-8 17 0
8 -13 -17 0
17 -20 0
-18 -20 0
19 -20 0
-17 18 -19 20 0
1 -20 21 0
1 20 -21 0
-1 -16 21 0
-1 16 -21 0
23 24 0
-10 24 0
10 -23 -24 0
-22 -25 0
24 -25 0
22 -24 25 0
-2 25 -26 0
2 -25 -26 0
-2 -25 26 0
2 25 26 0
-26 0
-18 -27 0
14 -27 0
-14 18 27 0
-27 28 0
-19 28 0
19 27 -28 0
14 -29 0
18 -29 0
-21 -29 0
-14 -18 21 29 0
-29 30 0
7 30 0
-7 29 -30 0
2 -18 31 0
2 18 -31 0
-2 -28 31 0
-2 28 -31 0
2 -32 0
22 -32 0
-2 -22 32 0
2 -30 33 0
2 30 -33 0
-2 -5 33 0
-2 5 -33 0
-14 34 0
-21 34 0
31 34 0
14 21 -31 -34 0
34 -35 0
15 -35 0
-15 -34 35 0
21 -36 0
-35 -36 0
-21 35 36 0
14 37 0
-31 37 0
-36 37 0
-14 31 36 -37 0
37 -38 0
-7 -38 0
7 -37 38 0
19 -39 0
33 -39 0
-35 -39 0
-19 -33 35 39 0
32 40 0
10 40 0
-10 -32 -40 0
-3 40 -41 0
3 -40 -41 0
-3 -40 41 0
3 40 41 0
-41 0
-35 42 0
-31 42 0
31 35 -42 0
38 43 0
-15 43 0
15 -38 -43 0
42 -44 0
43 -44 0
-42 -43 44 0
19 45 0
-33 45 0
-19 33 -45 0
45 -46 0
15 -46 0
-15 -45 46 0
3 -19 47 0
3 19 -47 0
-3 -44 47 0
-3 44 -47 0
3 -46 48 0
3 46 -48 0
-3 -7 48 0
-3 7 -48 0
31 -49 0
-39 -49 0
-31 39 49 0
-47 50 0
-48 50 0
-49 50 0
47 48 49 -50 0
-31 -35 0
35 31 0
